BAYES
4
2 2 2 2
4
3 3 2 0
4 0 3 2 1
1 2
2 2 3

8
0.87 0.13 0.73 0.27 0.40 0.60 0.93 0.07

16
0.07 0.93 0.40 0.60 0.13 0.87 0.87 0.13 1.00 0.00 0.80 0.20 0.60 0.40 0.40 0.60

2
0.73 0.27

4
0.07 0.93 0.07 0.93
